NAME PortOpt_n10_m4_inst_3
ROWS
 N  OBJ
 E  budget  
 G  return  
 L  uncertain_risk
 L  fixed_risk
COLUMNS
    asset[0]  budget    1
    asset[0]  return    2.3012435293889135e+00
    asset[1]  budget    1
    asset[1]  return    4.2475698962197397e+00
    asset[2]  budget    1
    asset[2]  return    1.2931225737557051e+00
    asset[3]  budget    1
    asset[3]  return    4.5606370300478227e+00
    asset[4]  budget    1
    asset[4]  return    4.7176270859366367e+00
    asset[5]  budget    1
    asset[5]  return    1.4204727390315823e+00
    asset[6]  budget    1
    asset[6]  return    3.1947266480331935e+00
    asset[7]  budget    1
    asset[7]  return    2.4062561190589769e+00
    asset[8]  budget    1
    asset[8]  return    1.2983690592640076e+00
    asset[9]  budget    1
    asset[9]  return    4.7199305064423553e+00
    return_var  OBJ       -1
    return_var  return    -1
    uncertain_risk_var  OBJ       1
    uncertain_risk_var  uncertain_risk  -1
    fixed_risk_var  OBJ       1
    fixed_risk_var  fixed_risk  -1
RHS
    RHS1      budget    1
BOUNDS
QCMATRIX   uncertain_risk
    asset[0]  asset[0]  2.3541666550467501e-02
    asset[0]  asset[1]  9.3140844916876249e-03
    asset[1]  asset[0]  9.3140844916876249e-03
    asset[0]  asset[2]  5.3532689694467048e-02
    asset[2]  asset[0]  5.3532689694467048e-02
    asset[0]  asset[3]  8.1996200987800340e-04
    asset[3]  asset[0]  8.1996200987800340e-04
    asset[0]  asset[4]  1.6622118862666636e-03
    asset[4]  asset[0]  1.6622118862666636e-03
    asset[0]  asset[5]  1.9928399119734444e-06
    asset[5]  asset[0]  1.9928399119734444e-06
    asset[0]  asset[6]  -3.7946647392724922e-02
    asset[6]  asset[0]  -3.7946647392724922e-02
    asset[0]  asset[7]  5.3104878887569743e-03
    asset[7]  asset[0]  5.3104878887569743e-03
    asset[0]  asset[8]  1.4980342382811491e-02
    asset[8]  asset[0]  1.4980342382811491e-02
    asset[0]  asset[9]  1.2267338737730615e-02
    asset[9]  asset[0]  1.2267338737730615e-02
    asset[1]  asset[1]  5.0463520439737904e-02
    asset[1]  asset[2]  -5.3711593232323891e-03
    asset[2]  asset[1]  -5.3711593232323891e-03
    asset[1]  asset[3]  -2.7334065812168852e-03
    asset[3]  asset[1]  -2.7334065812168852e-03
    asset[1]  asset[4]  4.9476931701322819e-03
    asset[4]  asset[1]  4.9476931701322819e-03
    asset[1]  asset[5]  -7.9039345583594954e-03
    asset[5]  asset[1]  -7.9039345583594954e-03
    asset[1]  asset[6]  -3.3310123501634648e-02
    asset[6]  asset[1]  -3.3310123501634648e-02
    asset[1]  asset[7]  -2.9595570233663292e-02
    asset[7]  asset[1]  -2.9595570233663292e-02
    asset[1]  asset[8]  -1.1535867644586507e-02
    asset[8]  asset[1]  -1.1535867644586507e-02
    asset[1]  asset[9]  -2.8785619313807485e-02
    asset[9]  asset[1]  -2.8785619313807485e-02
    asset[2]  asset[2]  1.4446380561632460e-01
    asset[2]  asset[3]  -1.0688922795223542e-03
    asset[3]  asset[2]  -1.0688922795223542e-03
    asset[2]  asset[4]  1.3350577468497211e-03
    asset[4]  asset[2]  1.3350577468497211e-03
    asset[2]  asset[5]  2.6993778521967257e-03
    asset[5]  asset[2]  2.6993778521967257e-03
    asset[2]  asset[6]  -8.0186439288970929e-02
    asset[6]  asset[2]  -8.0186439288970929e-02
    asset[2]  asset[7]  3.6023647289361665e-02
    asset[7]  asset[2]  3.6023647289361665e-02
    asset[2]  asset[8]  5.3255044720928693e-02
    asset[8]  asset[2]  5.3255044720928693e-02
    asset[2]  asset[9]  4.5137814784377159e-02
    asset[9]  asset[2]  4.5137814784377159e-02
    asset[3]  asset[3]  3.1021489595278581e-03
    asset[3]  asset[4]  4.2432445687032782e-04
    asset[4]  asset[3]  4.2432445687032782e-04
    asset[3]  asset[5]  1.6631410764302353e-03
    asset[5]  asset[3]  1.6631410764302353e-03
    asset[3]  asset[6]  2.7598061449883035e-03
    asset[6]  asset[3]  2.7598061449883035e-03
    asset[3]  asset[7]  2.1384714109715542e-04
    asset[7]  asset[3]  2.1384714109715542e-04
    asset[3]  asset[8]  -2.7535077317052377e-03
    asset[8]  asset[3]  -2.7535077317052377e-03
    asset[3]  asset[9]  9.4763874300067379e-04
    asset[9]  asset[3]  9.4763874300067379e-04
    asset[4]  asset[4]  1.4764546521843794e-02
    asset[4]  asset[5]  4.9174976032062404e-04
    asset[5]  asset[4]  4.9174976032062404e-04
    asset[4]  asset[6]  1.7877948192852717e-03
    asset[6]  asset[4]  1.7877948192852717e-03
    asset[4]  asset[7]  3.2747623360355395e-02
    asset[7]  asset[4]  3.2747623360355395e-02
    asset[4]  asset[8]  2.6951356072041702e-02
    asset[8]  asset[4]  2.6951356072041702e-02
    asset[4]  asset[9]  -6.4625816907357275e-02
    asset[9]  asset[4]  -6.4625816907357275e-02
    asset[5]  asset[5]  1.8581726356368988e-03
    asset[5]  asset[6]  4.6130413683472494e-03
    asset[6]  asset[5]  4.6130413683472494e-03
    asset[5]  asset[7]  6.9697543685352161e-03
    asset[7]  asset[5]  6.9697543685352161e-03
    asset[5]  asset[8]  3.1258225384348543e-03
    asset[8]  asset[5]  3.1258225384348543e-03
    asset[5]  asset[9]  8.0157434774035896e-04
    asset[9]  asset[5]  8.0157434774035896e-04
    asset[6]  asset[6]  7.3360506255856786e-02
    asset[6]  asset[7]  1.5708088369195013e-02
    asset[7]  asset[6]  1.5708088369195013e-02
    asset[6]  asset[8]  -1.0653685525823324e-02
    asset[8]  asset[6]  -1.0653685525823324e-02
    asset[6]  asset[9]  -3.2463973139139679e-02
    asset[9]  asset[6]  -3.2463973139139679e-02
    asset[7]  asset[7]  1.1466475722604212e-01
    asset[7]  asset[8]  9.0522585622261897e-02
    asset[8]  asset[7]  9.0522585622261897e-02
    asset[7]  asset[9]  -1.3038114356117486e-01
    asset[9]  asset[7]  -1.3038114356117486e-01
    asset[8]  asset[8]  8.0369999390856373e-02
    asset[8]  asset[9]  -1.0231511416974455e-01
    asset[9]  asset[8]  -1.0231511416974455e-01
    asset[9]  asset[9]  3.0428598009531088e-01
QCMATRIX   fixed_risk
    asset[0]  asset[0]  2.4806824342579539e-03
    asset[1]  asset[1]  5.6730655831864025e-03
    asset[2]  asset[2]  1.4730954170935159e-02
    asset[3]  asset[3]  2.8696682165224233e-04
    asset[4]  asset[4]  1.5917084968049408e-03
    asset[5]  asset[5]  1.7672047708529635e-04
    asset[6]  asset[6]  7.7503849897352277e-03
    asset[7]  asset[7]  1.1060056914331035e-02
    asset[8]  asset[8]  7.5352726325253368e-03
    asset[9]  asset[9]  3.1907228308114009e-02
ENDATA
